p cnf 100 160
41 -57 69 0
-53 30 -52 0
-43 91 22 0
13 8 94 0
39 37 -83 0
93 3 -71 0
-57 -31 89 0
-19 -38 -69 0
-16 55 41 0
-80 -38 66 0
-41 34 95 0
-57 7 -85 0
32 4 99 0
37 49 -3 0
-41 81 -43 0
-46 -44 21 0
84 -62 40 0
-56 -53 4 0
33 -30 93 0
68 -63 53 0
91 24 -36 0
-24 37 -68 0
-67 32 48 0
59 -25 -11 0
-8 53 48 0
-16 66 14 0
-61 -6 52 0
79 -27 -94 0
79 29 92 0
6 -82 25 0
100 47 20 0
-70 -15 43 0
-34 -10 -90 0
33 83 27 0
14 -59 41 0
8 -58 -20 0
94 70 -13 0
-55 -2 -5 0
52 60 -87 0
-12 92 19 0
16 15 -37 0
55 6 5 0
5 -39 -61 0
28 75 -97 0
1 63 48 0
-88 -11 -4 0
73 -87 18 0
-86 40 73 0
77 8 -19 0
36 -92 -31 0
-14 92 -32 0
-79 11 74 0
48 -67 39 0
37 66 34 0
89 -46 35 0
-16 93 10 0
56 93 11 0
-28 88 -86 0
16 84 50 0
-36 10 -5 0
-70 46 -7 0
58 -3 -13 0
84 -53 44 0
-37 -99 -92 0
-68 95 -67 0
79 93 -18 0
1 -90 34 0
9 -69 -8 0
-95 30 -14 0
27 28 76 0
-18 49 -74 0
29 36 -72 0
-73 -83 81 0
-65 26 4 0
-95 -8 -63 0
-69 26 93 0
19 49 -96 0
-95 -33 1 0
53 -16 60 0
-49 -47 82 0
6 74 16 0
-42 48 -14 0
-69 13 -38 0
-35 86 64 0
84 -46 70 0
-18 35 100 0
-16 -4 73 0
9 63 -35 0
40 -14 -64 0
-49 25 56 0
62 72 93 0
67 80 -31 0
30 -50 -60 0
-52 11 12 0
-4 50 78 0
55 50 2 0
23 -73 47 0
-96 -34 -21 0
43 -23 21 0
52 -65 -11 0
x 2 3 7 -8 10 -13 19 20 -21 -24 -25 -26 27 28 30 -33 34 -35 -37 39 -40 41 45 48 -50 52 54 -58 -60 62 -63 -66 70 72 73 75 -80 -81 82 -83 -85 87 -89 90 91 -92 93 -94 -96 0
x 2 5 -7 12 -17 21 -22 24 27 -28 29 -30 33 -34 -35 -36 38 -39 -41 42 43 -44 46 -47 49 50 51 -52 54 -55 56 57 -58 -60 -62 63 65 66 67 -69 -70 -74 -76 -78 80 -81 82 -83 85 87 88 -89 -95 -96 -97 100 0
x 1 6 7 -8 -14 16 -22 23 24 26 -29 -31 32 -34 35 38 -41 43 -44 -46 47 48 -49 -52 -53 -54 -55 -56 58 -60 61 -62 -64 -66 70 71 72 74 -75 -79 -80 81 85 -86 -88 -89 -91 -92 -93 -94 95 -96 -99 100 0
x 1 -3 -5 6 7 8 9 10 -11 -12 13 14 -17 -18 -19 20 21 -24 -25 26 27 -28 -29 32 33 37 -39 -41 42 47 -49 -50 -51 -53 55 58 -59 -60 -62 -63 66 68 70 71 73 -74 -75 76 -77 80 -81 -85 86 -88 -89 92 -93 -95 96 -97 -100 0
x 1 3 5 -7 -8 -9 -14 15 16 17 -22 24 27 30 -34 -35 -36 37 38 46 48 50 -52 55 56 57 -58 -60 -61 -62 -67 68 -69 -70 73 -74 75 -79 -81 82 83 86 88 -89 90 -91 92 98 0
x -1 -2 3 -4 9 13 -14 -16 17 20 21 -23 25 26 -27 -29 -34 -36 -38 -41 -42 43 44 -45 46 47 49 51 52 54 -55 57 -58 60 -62 64 -67 70 -71 -72 74 75 77 78 79 82 84 85 86 -87 90 -92 95 -96 -98 -100 0
x -2 4 6 7 -8 9 -13 16 -18 19 -20 -21 22 -24 -26 29 33 -34 -35 -37 -38 39 -40 -41 44 -45 48 50 51 52 53 54 -56 57 -58 -63 64 -65 68 72 74 76 77 -78 79 81 -82 -84 85 86 89 90 91 -95 96 -97 -99 -100 0
x -1 2 -3 -5 6 -8 -9 -11 12 14 -17 18 22 -23 -24 -25 -26 28 29 -31 -35 -36 -38 45 46 47 -48 -51 52 -55 -56 57 -60 -61 63 64 66 -68 69 -75 -76 77 79 81 -84 -85 -87 -90 91 93 94 -95 98 0
x -1 5 6 -7 -8 13 -14 15 -17 -19 20 -23 -25 -27 -29 31 -33 34 -35 -36 40 -44 45 46 47 48 49 -51 52 53 -54 59 -60 -63 66 -71 72 -75 -77 -78 -79 -80 -83 84 -85 -87 90 -91 -92 93 94 95 -98 -99 100 0
x -3 -6 -8 9 -11 -12 -13 14 15 -16 17 -19 -20 -26 27 -28 -30 32 -33 34 -35 40 41 -42 43 -46 49 -50 51 52 53 55 58 -59 -63 64 -65 69 -71 -72 73 75 -76 77 -78 -79 82 -85 86 88 -90 92 -93 95 -97 99 -100 0
x -2 -4 -7 10 11 -15 -16 -18 -20 22 -23 25 -28 29 31 -33 -35 36 -38 39 43 -49 -52 53 -56 -57 -59 60 -62 -63 -65 66 -67 -68 71 72 74 75 -76 78 -79 80 81 83 -84 86 -87 89 -93 -94 96 97 -99 0
x 1 3 6 -8 9 12 -18 -19 -25 30 31 -33 35 -36 37 38 42 45 46 47 48 -49 50 -52 -54 55 -56 58 -59 -62 63 -64 -67 68 69 -70 -71 72 73 -74 75 -76 -77 80 -83 -84 -85 87 -89 92 93 -95 -96 -97 -98 99 -100 0
x 3 -5 -6 -12 -18 19 20 -28 -29 -30 -32 35 36 42 -44 48 -49 50 53 -55 58 -61 -63 -64 67 -69 70 -72 -73 -75 77 -80 85 -86 -88 -92 93 95 98 -99 0
x -1 3 -7 9 11 16 17 -19 20 -24 -26 -27 -28 29 31 35 -36 -38 39 43 51 -52 -53 55 -56 -58 -59 -60 63 64 67 -68 70 71 74 75 77 -78 -79 83 86 87 -88 -89 90 -92 93 -94 96 -98 100 0
x 1 -3 -5 6 15 18 19 20 -22 24 25 -28 31 -32 -36 39 -41 -42 -43 -44 -49 50 -51 -54 -55 -59 -60 61 -63 64 -69 71 -73 -74 75 -79 -80 -81 -83 -86 89 -90 91 92 -93 -95 97 98 0
x 1 -2 5 9 -14 -15 -19 21 28 -29 30 36 37 -38 -39 -40 -41 45 46 47 49 51 53 -54 57 58 59 60 -61 -65 -66 -68 -69 -71 -72 73 -74 -75 76 -77 -79 -80 83 85 -87 88 -91 93 -97 -98 100 0
x 2 -3 4 -6 -7 -9 10 -13 14 15 -16 -18 20 -22 24 25 -27 28 30 31 -33 -35 39 -40 42 -43 -44 45 47 -50 51 52 53 -54 -55 -57 -58 -59 -61 62 69 -71 -72 73 75 76 -77 -78 -80 -81 -85 87 88 -89 -90 -94 -95 -97 0
x 1 -12 17 18 -19 -24 -28 32 -40 44 -45 -46 -50 -51 -54 -56 -58 -60 61 -62 63 -64 -65 67 70 -71 72 -73 -75 -77 -78 -79 81 82 84 -85 -86 89 -90 -92 93 -95 96 -100 0
x 1 -2 -7 -11 -12 15 -16 18 19 20 21 -23 26 27 -30 31 33 -36 -37 -38 39 41 43 46 48 50 51 54 -55 56 -58 -59 60 -65 66 -67 -68 74 75 -76 -77 -79 87 88 -90 -92 -93 96 -98 99 100 0
x 1 2 4 5 7 8 9 -13 -15 17 -20 -21 -23 -24 25 26 28 29 31 -32 -35 38 -40 44 -50 -52 53 56 -58 61 64 -65 -67 68 -70 -71 -75 76 -78 -80 82 83 -84 -85 -86 87 -88 91 94 -96 -98 0
x -2 -3 -9 -15 16 -17 18 20 21 -22 -24 26 -27 -28 -31 -34 36 37 39 40 43 -44 45 -46 49 50 -51 57 -58 -59 -61 63 -66 67 -70 72 -74 -75 76 -77 80 81 83 -84 -86 87 -90 -91 -92 93 95 -99 0
x -1 4 -5 6 -8 -12 -13 14 16 17 -19 23 24 26 -28 29 30 -31 -38 -39 40 44 -45 50 51 -55 56 -57 58 -61 -63 -68 75 -76 -77 78 -79 80 -82 86 89 -91 -93 -96 -97 100 0
x -4 5 -7 -8 9 13 -14 -17 -19 -21 23 -25 -27 28 32 -34 -37 -39 -40 41 -44 46 50 -51 -52 57 59 -61 -63 65 -68 -72 73 75 76 78 -80 -85 86 92 94 -95 97 -99 0
x -1 -2 6 7 10 11 13 15 -19 21 -24 26 -27 28 31 33 34 35 36 37 -42 -43 45 46 -47 -48 50 51 52 54 55 59 -61 62 -63 -64 -69 -70 71 72 73 -79 -81 -82 -86 87 -90 -93 95 99 -100 0
x 1 2 5 6 -8 -9 10 12 -13 16 -18 -23 -25 28 -30 -31 -32 34 -35 38 -42 44 45 46 48 -50 -52 -54 -56 -59 60 61 64 66 67 70 71 72 74 75 77 -79 -82 -84 -89 90 99 -100 0
x -1 -4 -5 10 -11 17 18 -22 23 -25 -27 28 -29 -30 31 -37 38 -40 -42 -43 -46 47 -52 54 -55 -56 57 -59 -60 65 66 -67 70 -72 73 -76 -77 -79 -80 84 -85 87 88 -89 -90 91 92 -94 -95 96 -97 -99 0
x 1 3 4 -6 -12 -13 -16 -17 -19 20 -22 24 -25 26 -28 -31 -33 -34 35 -39 45 -48 49 50 51 -52 -53 -55 -56 -57 60 62 65 67 68 70 73 77 -79 81 -82 -83 85 86 -87 88 -90 -91 -92 93 -94 96 -97 99 -100 0
x 1 -3 4 -5 6 7 11 -12 -14 -15 -17 18 19 22 -23 24 25 26 -28 -31 -35 -37 39 -40 -41 -43 -46 -47 51 53 56 -57 62 63 65 66 -68 -69 72 73 76 -78 -79 81 -82 83 84 88 90 91 -93 95 -96 97 -98 0
x 4 -5 10 12 14 15 18 25 -26 -28 29 -30 31 -32 -35 36 38 -39 -40 41 42 44 -46 47 48 52 54 -55 -56 59 -64 65 66 -67 -69 -70 72 -78 -80 82 -83 -84 85 -87 89 90 -92 -98 0
x 2 3 4 5 7 8 -9 10 12 -15 16 -23 -24 25 -26 -29 -34 37 -38 41 -44 -47 -48 -49 -52 -53 -55 56 -59 -61 -62 -64 -65 -69 72 74 75 78 -79 80 81 -82 -83 85 -86 -90 92 -93 -95 -96 100 0
x 4 6 -10 11 14 -15 17 -19 -20 22 23 -24 26 30 -36 38 39 42 47 -48 49 50 51 -52 53 -57 -58 60 61 62 -65 -67 -68 71 -73 -74 75 76 79 -80 82 -83 84 85 88 91 95 0
x -4 6 -7 -9 13 14 -23 -25 -27 -28 30 35 36 -38 43 44 45 46 47 49 51 -52 -55 58 -59 -60 61 62 63 65 -70 71 72 -74 -76 77 -78 -80 -82 -86 -87 -91 93 94 -95 -96 99 -100 0
x 6 15 16 -20 22 24 -25 32 34 35 -38 -40 -41 -43 -44 45 -46 -47 48 -51 -52 -53 56 -59 60 61 65 -66 -67 -68 -70 -71 73 75 83 -84 -88 90 -91 92 93 -94 95 -96 99 0
x -3 6 -7 13 -14 16 -18 20 21 -23 -24 -26 29 31 -32 -36 -37 -40 -42 43 -46 -47 48 49 -52 -57 -59 -61 -62 63 64 68 72 73 76 -78 -83 84 85 -86 88 89 -92 -94 -95 98 100 0
x -1 -3 -6 -10 -11 12 13 14 -15 -16 17 18 19 -21 22 24 -25 27 -28 -35 -38 -39 44 45 -47 49 -50 52 -53 -56 57 -58 60 61 62 -63 -64 -65 70 71 -72 -74 75 77 -78 79 81 84 -85 86 -90 94 97 98 99 0
x -1 -2 -5 8 13 -15 16 -18 19 22 -23 24 26 27 -30 31 -32 -33 -35 -40 -41 -43 44 -46 -47 48 51 53 -55 -57 59 -62 63 69 -73 -75 76 -77 -78 -80 81 -82 -86 -87 88 90 91 -93 96 97 99 0
x -1 -3 -5 -6 -8 11 -12 -18 20 -21 -22 23 27 28 30 31 -32 -33 -34 -35 37 -40 41 46 47 51 -52 -53 -55 -57 -58 -59 62 63 -64 -67 68 -71 72 -73 76 -77 78 -79 80 81 -83 -84 87 92 97 -98 -100 0
x -2 -5 11 -13 -15 16 -19 -23 -25 28 -34 35 37 38 40 41 43 45 -46 48 -49 50 51 52 -53 56 -57 58 -62 63 64 -67 70 -71 77 78 79 -80 -81 82 -85 86 87 -88 -91 -92 93 -94 95 97 0
x -2 -3 4 7 8 9 -16 17 -19 20 -21 23 -24 -25 28 32 33 -35 -36 -38 -43 -46 48 -51 52 -53 -54 -57 61 -62 65 66 73 -74 -75 83 87 88 -93 -94 95 96 98 99 -100 0
x 2 -3 4 -6 -7 -8 -12 -13 14 -17 18 19 20 -21 -22 -23 -24 -25 -26 -28 32 -34 37 -38 40 -41 -44 45 -46 47 -48 50 -54 55 58 59 -62 65 67 -68 -73 74 -76 -78 79 80 -82 83 -85 86 -88 90 93 -96 -98 99 0
x 1 -3 -4 6 -8 9 10 13 -14 -15 17 18 -22 23 24 -26 -29 30 31 34 -35 -38 42 -45 48 49 50 -51 -52 -55 59 60 -61 -62 63 -65 67 -68 -69 73 -74 -76 78 82 83 -84 89 91 92 -93 -95 -96 98 99 0
x -4 -5 -6 14 15 17 -18 -19 -25 26 -29 -30 -33 -35 -37 -38 -40 -42 44 -50 -51 57 -59 62 -63 -64 66 67 -69 -74 75 -76 77 81 -82 83 87 -90 -91 -92 -96 -97 -98 0
x 6 8 11 12 13 -14 15 16 20 21 23 25 -26 -27 31 -32 35 -39 -41 -42 -43 -44 45 48 -49 51 53 54 -57 58 60 61 63 -65 -68 -71 79 80 81 -82 83 -86 90 -91 95 98 -99 0
x 2 -7 -9 -12 -14 16 -18 -20 -23 24 26 27 29 -33 -35 36 38 42 44 46 -47 49 -50 -54 -56 -57 58 60 62 64 65 -67 -68 -71 76 -80 81 -85 86 87 88 89 -90 -94 -96 -97 -99 0
x -3 -4 -5 6 -7 -8 -9 10 -11 -12 14 -15 -16 18 19 20 21 22 -23 25 26 28 -32 -33 35 37 -38 41 -42 45 -48 50 52 -53 54 55 56 59 61 -63 64 -66 67 -70 74 78 -79 82 83 84 -85 -88 -90 92 -94 96 -99 100 0
x 3 -5 -6 7 -9 10 -15 -16 17 18 -19 23 24 -28 -31 32 33 -34 36 37 -38 43 45 46 48 -50 -54 56 -57 -58 59 -60 64 65 66 67 69 70 73 75 84 -85 86 -89 91 -92 -93 94 97 98 99 -100 0
x 3 5 -6 -8 -9 -10 11 12 -13 14 -18 -20 -22 -23 -24 28 29 30 -33 36 38 39 -41 -42 -46 -47 48 49 -53 54 -55 -56 -57 -58 59 61 62 -66 68 -70 71 72 -73 -76 77 78 -80 -82 -83 85 86 87 -88 89 91 94 -95 -98 100 0
x 2 3 -4 -5 6 7 9 -12 -13 -16 -17 18 -19 -20 21 -24 25 -26 28 30 -33 -34 -35 -40 41 -43 44 46 47 -48 50 -52 53 -54 -56 -57 58 -59 -60 63 64 -68 70 -71 72 -73 -77 -80 83 84 -87 -88 90 93 94 96 98 -99 0
x 2 -4 6 7 8 -9 -10 13 17 -19 -20 23 24 27 28 29 30 -42 -45 46 47 49 50 51 -54 57 64 -65 66 -68 69 -70 72 -73 74 -77 -79 -81 -83 85 86 87 -88 -90 -91 94 -95 -97 -98 -100 0
x 2 -3 5 -6 -8 -14 15 -18 -19 21 -25 26 27 30 31 -32 -33 -34 -35 36 45 -46 48 -49 -52 53 56 57 -61 -62 63 -67 -68 69 -74 -75 78 -79 -80 81 82 -84 -85 86 -87 88 89 90 -92 -93 95 -96 -97 -98 -99 0
x 1 3 4 7 9 11 14 16 18 19 -20 21 -23 -24 -25 26 28 29 -31 37 38 -42 44 45 -47 48 -49 -50 -51 53 54 -55 56 57 61 65 66 -67 68 69 71 74 80 -82 83 -85 -90 -91 -93 -95 -96 97 0
x 2 3 5 6 -7 -9 -16 -17 18 -20 22 -24 26 -27 -28 -29 -30 -34 35 -37 38 39 -40 -41 -42 -45 46 48 -50 -51 59 60 -61 -65 -67 69 70 -71 72 74 76 -77 79 -80 -84 86 88 -89 91 -92 94 95 -96 97 98 99 0
x 4 -7 11 -13 17 18 -20 21 22 25 -26 -27 29 31 -33 35 -37 38 40 41 44 -46 50 55 -56 -59 61 63 65 -66 -68 -71 72 -74 -77 -81 82 85 86 90 -91 -93 -94 0
x -1 2 -3 -6 -9 12 -15 16 -17 -18 -19 20 -21 -23 25 -27 28 29 -30 -31 32 -33 34 -36 37 42 43 44 45 46 -47 -49 53 54 56 -63 68 72 -75 76 77 78 -80 -83 -85 -86 -89 -90 -91 92 -95 -96 99 0
x 1 2 -5 6 7 -9 13 -14 15 -17 -19 20 21 22 24 -25 -26 -27 28 29 -37 -38 -40 41 -43 -46 47 -56 -58 -59 63 -68 -69 70 -71 -75 80 -82 -86 -87 88 89 91 -93 -94 -95 -97 -98 99 0
x -1 -5 -6 -8 -10 -18 19 -20 21 24 25 26 -27 28 -35 -36 38 39 40 -41 -42 44 45 -46 -48 49 -50 -51 -57 58 62 -63 65 -66 68 -70 71 72 78 -79 80 81 -85 -89 91 -92 -93 -94 97 -98 99 100 0
x -1 -2 -5 6 10 -15 17 19 20 -25 -27 28 -29 31 -36 39 40 -41 44 -48 -49 50 53 55 -56 57 -59 -60 -61 -62 -63 -64 -65 -66 -69 71 -76 -80 83 85 89 -93 -95 -96 97 99 100 0
x 2 5 -7 8 9 10 -11 13 -14 16 -17 -19 22 -24 25 27 -30 33 -36 37 38 40 -41 42 43 45 47 52 -53 55 56 -57 -58 61 63 64 -66 67 -69 -70 73 -83 -84 87 -89 90 91 95 97 98 100 0
x 1 2 -3 4 5 -6 -15 -17 -22 29 -31 33 -34 36 40 43 46 47 48 50 51 -52 53 -54 58 59 61 62 63 -64 65 -68 -70 76 77 78 -79 -81 82 -85 87 90 -93 -95 97 -99 0
x -1 -2 -5 -8 -9 -10 -11 12 -16 -17 20 -21 22 -24 -25 27 33 -34 -35 -36 -37 -39 40 41 42 44 47 48 -50 51 52 -53 56 -57 58 -59 63 64 -66 -69 -70 72 -73 -79 -80 81 87 90 91 95 98 -100 0
